/*********************************************
 * OPL 12.6.0.0 Data
 * Author: cholda
 * Creation Date: 7 Nov 2014 at 13:32:35
 *********************************************/

 n = 5;
 
 Arcs = {<1,2>, <1,3>, <1,4>, <2,3>, <2,4>, <3,4>, <4,3>, <3,5>, <4,5>};
 
 Capacity = [2 1 3 1 2 2 3 3 1];

 source = 1;
 destination = 5;
 